NAME : pr20.tsp
COMMENT : 20-city problem
TYPE : TSP 
DIMENSION : 20
EDGE_WEIGHT_TYPE : CEIL_2D
NODE_COORD_SECTION 
1  1.493200e+04 2.995000e+03 
2  7.281800e+04 5.437200e+04 
3  6.176700e+04 9.853400e+04 
4  3.042500e+04 9.586600e+04 
5  1.165000e+04 5.919200e+04 
6  7.661200e+04 5.639000e+04 
7  9.850000e+04 4.003400e+04 
8  9.114200e+04 7.591100e+04 
9  2.593000e+04 8.646000e+03 
10 2.543700e+04 8.154100e+04 
11 9.636900e+04 4.118100e+04 
12 8.584000e+04 5.871800e+04 
13 2.075700e+04 4.453600e+04 
14 9.233700e+04 2.316100e+04 
15 5.180700e+04 4.621000e+03 
16 6.411200e+04 5.203300e+04 
17 2.036600e+04 1.370100e+04 
18 6.080000e+02 9.914700e+04 
19 8.620400e+04 9.131900e+04 
20 5.128600e+04 3.945400e+04 
EOF 
